GRAPH IS : 
0 0 0 0 0 0 0 0 0 0 0 0 0 0 0 0 0 0 0 0 0 0 0 0 0 0 0 0 0 0 0 0 0 0 0 0 0 0 0 0 0 0 0 0 0 0 0 
0 0 1 0 1 0 0 1 0 1 0 0 0 1 0 1 0 0 1 0 1 0 0 0 0 1 0 1 0 0 1 0 1 0 0 0 1 0 1 0 0 1 0 1 0 0 0 
0 0 0 1 0 0 1 0 1 0 0 0 1 0 1 0 0 1 0 1 0 0 0 0 1 0 1 0 0 1 0 1 0 0 0 1 0 1 0 0 1 0 1 0 0 0 0 
0 0 0 0 0 1 0 1 0 0 1 0 0 1 0 0 1 0 1 0 0 1 0 0 0 1 0 0 1 0 1 0 0 1 0 0 1 0 0 1 0 1 0 0 1 0 0 
0 0 0 0 0 1 1 0 0 0 1 0 1 0 0 0 1 1 0 0 0 1 0 0 1 0 0 0 1 1 0 0 0 1 0 1 0 0 0 1 1 0 0 0 1 0 0 
0 0 0 0 0 0 0 0 1 1 0 0 0 0 1 1 0 0 0 1 1 0 0 0 0 0 1 1 0 0 0 1 1 0 0 0 0 1 1 0 0 0 1 1 0 0 0 
0 0 0 0 0 0 0 0 0 0 0 1 0 1 0 1 0 0 0 0 0 0 1 0 0 1 0 1 0 0 0 0 0 0 1 0 1 0 1 0 0 0 0 0 0 1 0 
0 0 0 0 0 0 0 0 0 0 0 1 1 0 1 0 0 0 0 0 0 0 1 0 1 0 1 0 0 0 0 0 0 0 1 1 0 1 0 0 0 0 0 0 0 1 0 
0 0 0 0 0 0 0 0 0 0 0 1 0 1 0 0 1 0 0 0 0 0 1 0 0 1 0 0 1 0 0 0 0 0 1 0 1 0 0 1 0 0 0 0 0 1 0 
0 0 0 0 0 0 0 0 0 0 0 1 1 0 0 0 1 0 0 0 0 0 1 0 1 0 0 0 1 0 0 0 0 0 1 1 0 0 0 1 0 0 0 0 0 1 0 
0 0 0 0 0 0 0 0 0 0 0 1 0 0 1 1 0 0 0 0 0 0 1 0 0 0 1 1 0 0 0 0 0 0 1 0 0 1 1 0 0 0 0 0 0 1 0 
0 0 0 0 0 0 0 0 0 0 0 0 0 0 0 0 0 1 1 1 1 1 0 0 0 0 0 0 0 1 1 1 1 1 0 0 0 0 0 0 1 1 1 1 1 0 0 
0 0 0 0 0 0 0 0 0 0 0 0 0 0 0 0 0 0 0 0 0 0 0 1 0 1 0 1 0 0 1 0 1 0 0 0 0 0 0 0 0 0 0 0 0 0 1 
0 0 0 0 0 0 0 0 0 0 0 0 0 0 0 0 0 0 0 0 0 0 0 1 1 0 1 0 0 1 0 1 0 0 0 0 0 0 0 0 0 0 0 0 0 0 1 
0 0 0 0 0 0 0 0 0 0 0 0 0 0 0 0 0 0 0 0 0 0 0 1 0 1 0 0 1 0 1 0 0 1 0 0 0 0 0 0 0 0 0 0 0 0 1 
0 0 0 0 0 0 0 0 0 0 0 0 0 0 0 0 0 0 0 0 0 0 0 1 1 0 0 0 1 1 0 0 0 1 0 0 0 0 0 0 0 0 0 0 0 0 1 
0 0 0 0 0 0 0 0 0 0 0 0 0 0 0 0 0 0 0 0 0 0 0 1 0 0 1 1 0 0 0 1 1 0 0 0 0 0 0 0 0 0 0 0 0 0 1 
0 0 0 0 0 0 0 0 0 0 0 0 0 0 0 0 0 0 0 0 0 0 0 1 0 1 0 1 0 0 0 0 0 0 1 0 0 0 0 0 0 0 0 0 0 0 1 
0 0 0 0 0 0 0 0 0 0 0 0 0 0 0 0 0 0 0 0 0 0 0 1 1 0 1 0 0 0 0 0 0 0 1 0 0 0 0 0 0 0 0 0 0 0 1 
0 0 0 0 0 0 0 0 0 0 0 0 0 0 0 0 0 0 0 0 0 0 0 1 0 1 0 0 1 0 0 0 0 0 1 0 0 0 0 0 0 0 0 0 0 0 1 
0 0 0 0 0 0 0 0 0 0 0 0 0 0 0 0 0 0 0 0 0 0 0 1 1 0 0 0 1 0 0 0 0 0 1 0 0 0 0 0 0 0 0 0 0 0 1 
0 0 0 0 0 0 0 0 0 0 0 0 0 0 0 0 0 0 0 0 0 0 0 1 0 0 1 1 0 0 0 0 0 0 1 0 0 0 0 0 0 0 0 0 0 0 1 
0 0 0 0 0 0 0 0 0 0 0 0 0 0 0 0 0 0 0 0 0 0 0 1 0 0 0 0 0 1 1 1 1 1 0 0 0 0 0 0 0 0 0 0 0 0 1 
0 0 0 0 0 0 0 0 0 0 0 0 0 0 0 0 0 0 0 0 0 0 0 0 0 0 0 0 0 0 0 0 0 0 0 1 1 1 1 1 1 1 1 1 1 1 0 
0 0 0 0 0 0 0 0 0 0 0 0 0 0 0 0 0 0 0 0 0 0 0 0 0 0 0 0 0 0 0 0 0 0 0 0 0 0 0 0 0 0 0 0 0 0 0 
0 0 0 0 0 0 0 0 0 0 0 0 0 0 0 0 0 0 0 0 0 0 0 0 0 0 0 0 0 0 0 0 0 0 0 0 0 0 0 0 0 0 0 0 0 0 0 
0 0 0 0 0 0 0 0 0 0 0 0 0 0 0 0 0 0 0 0 0 0 0 0 0 0 0 0 0 0 0 0 0 0 0 0 0 0 0 0 0 0 0 0 0 0 0 
0 0 0 0 0 0 0 0 0 0 0 0 0 0 0 0 0 0 0 0 0 0 0 0 0 0 0 0 0 0 0 0 0 0 0 0 0 0 0 0 0 0 0 0 0 0 0 
0 0 0 0 0 0 0 0 0 0 0 0 0 0 0 0 0 0 0 0 0 0 0 0 0 0 0 0 0 0 0 0 0 0 0 0 0 0 0 0 0 0 0 0 0 0 0 
0 0 0 0 0 0 0 0 0 0 0 0 0 0 0 0 0 0 0 0 0 0 0 0 0 0 0 0 0 0 0 0 0 0 0 0 0 0 0 0 0 0 0 0 0 0 0 
0 0 0 0 0 0 0 0 0 0 0 0 0 0 0 0 0 0 0 0 0 0 0 0 0 0 0 0 0 0 0 0 0 0 0 0 0 0 0 0 0 0 0 0 0 0 0 
0 0 0 0 0 0 0 0 0 0 0 0 0 0 0 0 0 0 0 0 0 0 0 0 0 0 0 0 0 0 0 0 0 0 0 0 0 0 0 0 0 0 0 0 0 0 0 
0 0 0 0 0 0 0 0 0 0 0 0 0 0 0 0 0 0 0 0 0 0 0 0 0 0 0 0 0 0 0 0 0 0 0 0 0 0 0 0 0 0 0 0 0 0 0 
0 0 0 0 0 0 0 0 0 0 0 0 0 0 0 0 0 0 0 0 0 0 0 0 0 0 0 0 0 0 0 0 0 0 0 0 0 0 0 0 0 0 0 0 0 0 0 
0 0 0 0 0 0 0 0 0 0 0 0 0 0 0 0 0 0 0 0 0 0 0 0 0 0 0 0 0 0 0 0 0 0 0 0 0 0 0 0 0 0 0 0 0 0 0 
0 0 0 0 0 0 0 0 0 0 0 0 0 0 0 0 0 0 0 0 0 0 0 0 0 0 0 0 0 0 0 0 0 0 0 0 0 0 0 0 0 0 0 0 0 0 0 
0 0 0 0 0 0 0 0 0 0 0 0 0 0 0 0 0 0 0 0 0 0 0 0 0 0 0 0 0 0 0 0 0 0 0 0 0 0 0 0 0 0 0 0 0 0 0 
0 0 0 0 0 0 0 0 0 0 0 0 0 0 0 0 0 0 0 0 0 0 0 0 0 0 0 0 0 0 0 0 0 0 0 0 0 0 0 0 0 0 0 0 0 0 0 
0 0 0 0 0 0 0 0 0 0 0 0 0 0 0 0 0 0 0 0 0 0 0 0 0 0 0 0 0 0 0 0 0 0 0 0 0 0 0 0 0 0 0 0 0 0 0 
0 0 0 0 0 0 0 0 0 0 0 0 0 0 0 0 0 0 0 0 0 0 0 0 0 0 0 0 0 0 0 0 0 0 0 0 0 0 0 0 0 0 0 0 0 0 0 
0 0 0 0 0 0 0 0 0 0 0 0 0 0 0 0 0 0 0 0 0 0 0 0 0 0 0 0 0 0 0 0 0 0 0 0 0 0 0 0 0 0 0 0 0 0 0 
0 0 0 0 0 0 0 0 0 0 0 0 0 0 0 0 0 0 0 0 0 0 0 0 0 0 0 0 0 0 0 0 0 0 0 0 0 0 0 0 0 0 0 0 0 0 0 
0 0 0 0 0 0 0 0 0 0 0 0 0 0 0 0 0 0 0 0 0 0 0 0 0 0 0 0 0 0 0 0 0 0 0 0 0 0 0 0 0 0 0 0 0 0 0 
0 0 0 0 0 0 0 0 0 0 0 0 0 0 0 0 0 0 0 0 0 0 0 0 0 0 0 0 0 0 0 0 0 0 0 0 0 0 0 0 0 0 0 0 0 0 0 
0 0 0 0 0 0 0 0 0 0 0 0 0 0 0 0 0 0 0 0 0 0 0 0 0 0 0 0 0 0 0 0 0 0 0 0 0 0 0 0 0 0 0 0 0 0 0 
0 0 0 0 0 0 0 0 0 0 0 0 0 0 0 0 0 0 0 0 0 0 0 0 0 0 0 0 0 0 0 0 0 0 0 0 0 0 0 0 0 0 0 0 0 0 0 
0 0 0 0 0 0 0 0 0 0 0 0 0 0 0 0 0 0 0 0 0 0 0 0 0 0 0 0 0 0 0 0 0 0 0 0 0 0 0 0 0 0 0 0 0 0 0 




----------------------------

EPOCH: 0 MAX:  -25.531914894    AVG:  -47.063829787
EPOCH: 1 MAX:  -25.531914894    AVG:  -43.515957447
EPOCH: 2 MAX:  -25.531914894    AVG:  -36.510638298
EPOCH: 3 MAX:  -25.531914894    AVG:  -31.936170213
EPOCH: 4 MAX:  -25.531914894    AVG:  -28.973404255
EPOCH: 5 MAX:  -25.531914894    AVG:  -25.861702128
EPOCH: 6 MAX:  -25.531914894    AVG:  -25.531914894
EPOCH: 7 MAX:  -25.531914894    AVG:  -25.531914894
EPOCH: 8 MAX:  -25.531914894    AVG:  -25.531914894
EPOCH: 9 MAX:  -25.531914894    AVG:  -25.531914894
EPOCH: 10 MAX:  -25.531914894    AVG:  -25.531914894
EPOCH: 11 MAX:  -25.531914894    AVG:  -25.531914894
EPOCH: 12 MAX:  -25.531914894    AVG:  -25.531914894
EPOCH: 13 MAX:  -25.531914894    AVG:  -25.531914894
EPOCH: 14 MAX:  -25.531914894    AVG:  -25.531914894
EPOCH: 15 MAX:  -25.531914894    AVG:  -25.531914894
EPOCH: 16 MAX:  -25.531914894    AVG:  -25.531914894
EPOCH: 17 MAX:  -25.531914894    AVG:  -25.531914894
EPOCH: 18 MAX:  -25.531914894    AVG:  -25.531914894
EPOCH: 19 MAX:  -25.531914894    AVG:  -25.531914894
EPOCH: 20 MAX:  -25.531914894    AVG:  -25.531914894
EPOCH: 21 MAX:  -25.531914894    AVG:  -25.531914894
EPOCH: 22 MAX:  -25.531914894    AVG:  -25.531914894
EPOCH: 23 MAX:  -25.531914894    AVG:  -25.531914894
EPOCH: 24 MAX:  -25.531914894    AVG:  -25.531914894
EPOCH: 25 MAX:  -25.531914894    AVG:  -25.531914894
EPOCH: 26 MAX:  -25.531914894    AVG:  -25.531914894
EPOCH: 27 MAX:  -25.531914894    AVG:  -25.531914894
EPOCH: 28 MAX:  -25.531914894    AVG:  -25.531914894
EPOCH: 29 MAX:  -25.531914894    AVG:  -25.531914894
EPOCH: 30 MAX:  -25.531914894    AVG:  -25.531914894
EPOCH: 31 MAX:  -25.531914894    AVG:  -25.531914894
EPOCH: 32 MAX:  -25.531914894    AVG:  -25.531914894
EPOCH: 33 MAX:  -25.531914894    AVG:  -25.531914894
EPOCH: 34 MAX:  -25.531914894    AVG:  -25.531914894
EPOCH: 35 MAX:  -25.531914894    AVG:  -25.531914894
EPOCH: 36 MAX:  -25.531914894    AVG:  -25.531914894
EPOCH: 37 MAX:  -25.531914894    AVG:  -25.531914894
EPOCH: 38 MAX:  -25.531914894    AVG:  -25.531914894
EPOCH: 39 MAX:  -25.531914894    AVG:  -25.531914894
EPOCH: 40 MAX:  -25.531914894    AVG:  -25.531914894
EPOCH: 41 MAX:  -25.531914894    AVG:  -25.531914894
EPOCH: 42 MAX:  -25.531914894    AVG:  -25.531914894
EPOCH: 43 MAX:  -25.531914894    AVG:  -25.531914894
EPOCH: 44 MAX:  -25.531914894    AVG:  -25.531914894
EPOCH: 45 MAX:  -25.531914894    AVG:  -25.531914894
EPOCH: 46 MAX:  -25.531914894    AVG:  -25.531914894
EPOCH: 47 MAX:  -25.531914894    AVG:  -25.531914894
EPOCH: 48 MAX:  -25.531914894    AVG:  -25.531914894
EPOCH: 49 MAX:  -25.531914894    AVG:  -25.531914894
EPOCH: 50 MAX:  -25.531914894    AVG:  -25.531914894
EPOCH: 51 MAX:  -25.531914894    AVG:  -25.531914894
EPOCH: 52 MAX:  -25.531914894    AVG:  -25.531914894
EPOCH: 53 MAX:  -25.531914894    AVG:  -25.531914894
EPOCH: 54 MAX:  -25.531914894    AVG:  -25.531914894
EPOCH: 55 MAX:  -25.531914894    AVG:  -25.531914894
EPOCH: 56 MAX:  -25.531914894    AVG:  -25.531914894
EPOCH: 57 MAX:  -25.531914894    AVG:  -25.531914894
EPOCH: 58 MAX:  -25.531914894    AVG:  -25.531914894
EPOCH: 59 MAX:  -25.531914894    AVG:  -25.531914894
EPOCH: 60 MAX:  -25.531914894    AVG:  -25.531914894
EPOCH: 61 MAX:  -25.531914894    AVG:  -25.531914894
EPOCH: 62 MAX:  -25.531914894    AVG:  -25.531914894
EPOCH: 63 MAX:  -25.531914894    AVG:  -25.531914894
EPOCH: 64 MAX:  -25.531914894    AVG:  -25.531914894
EPOCH: 65 MAX:  -25.531914894    AVG:  -25.531914894
EPOCH: 66 MAX:  -25.531914894    AVG:  -25.531914894
EPOCH: 67 MAX:  -25.531914894    AVG:  -25.531914894
EPOCH: 68 MAX:  -25.531914894    AVG:  -25.531914894
EPOCH: 69 MAX:  -25.531914894    AVG:  -25.531914894
EPOCH: 70 MAX:  -25.531914894    AVG:  -25.531914894
EPOCH: 71 MAX:  -25.531914894    AVG:  -25.531914894
EPOCH: 72 MAX:  -25.531914894    AVG:  -25.531914894
EPOCH: 73 MAX:  -25.531914894    AVG:  -25.531914894
EPOCH: 74 MAX:  -25.531914894    AVG:  -25.531914894
EPOCH: 75 MAX:  -25.531914894    AVG:  -25.531914894
EPOCH: 76 MAX:  -25.531914894    AVG:  -25.531914894
HELPER:  ....
EPOCH: 77 MAX:  -4.255319149    AVG:  -25.425531915
EPOCH: 78 MAX:  -4.255319149    AVG:  -25.095744681
EPOCH: 79 MAX:  -4.255319149    AVG:  -23.856382979
EPOCH: 80 MAX:  -4.255319149    AVG:  -21.212765957
EPOCH: 81 MAX:  -4.255319149    AVG:  -15.021276596
EPOCH: 82 MAX:  -4.255319149    AVG:  -10.031914894
EPOCH: 83 MAX:  -4.255319149    AVG:  -6.095744681
EPOCH: 84 MAX:  -4.255319149    AVG:  -5.303191489
EPOCH: 85 MAX:  -4.255319149    AVG:  -5.303191489
EPOCH: 86 MAX:  -4.255319149    AVG:  -5.297872340
EPOCH: 87 MAX:  -4.255319149    AVG:  -5.276595745
EPOCH: 88 MAX:  -4.255319149    AVG:  -5.239361702
EPOCH: 89 MAX:  -4.255319149    AVG:  -5.191489362
EPOCH: 90 MAX:  -4.255319149    AVG:  -5.122340426
EPOCH: 91 MAX:  -4.255319149    AVG:  -4.872340426
EPOCH: 92 MAX:  -4.255319149    AVG:  -4.398936170
EPOCH: 93 MAX:  -4.255319149    AVG:  -4.255319149
EPOCH: 94 MAX:  -4.255319149    AVG:  -4.255319149
EPOCH: 95 MAX:  -4.255319149    AVG:  -4.255319149
EPOCH: 96 MAX:  -4.255319149    AVG:  -4.255319149
EPOCH: 97 MAX:  -4.255319149    AVG:  -4.255319149
EPOCH: 98 MAX:  -4.255319149    AVG:  -4.255319149
EPOCH: 99 MAX:  -4.255319149    AVG:  -4.255319149
EPOCH: 100 MAX:  -4.255319149    AVG:  -4.255319149
EPOCH: 101 MAX:  -4.255319149    AVG:  -4.255319149
EPOCH: 102 MAX:  -4.255319149    AVG:  -4.255319149
EPOCH: 103 MAX:  -4.255319149    AVG:  -4.255319149
EPOCH: 104 MAX:  -4.255319149    AVG:  -4.255319149
EPOCH: 105 MAX:  -4.255319149    AVG:  -4.255319149
EPOCH: 106 MAX:  -4.255319149    AVG:  -4.255319149
EPOCH: 107 MAX:  -4.255319149    AVG:  -4.255319149
EPOCH: 108 MAX:  -4.255319149    AVG:  -4.255319149
EPOCH: 109 MAX:  -4.255319149    AVG:  -4.255319149
EPOCH: 110 MAX:  -4.255319149    AVG:  -4.255319149
EPOCH: 111 MAX:  -4.255319149    AVG:  -4.255319149
EPOCH: 112 MAX:  -4.255319149    AVG:  -4.255319149
EPOCH: 113 MAX:  -4.255319149    AVG:  -4.255319149
EPOCH: 114 MAX:  -4.255319149    AVG:  -4.255319149
EPOCH: 115 MAX:  -4.255319149    AVG:  -4.255319149
EPOCH: 116 MAX:  -4.255319149    AVG:  -4.255319149
EPOCH: 117 MAX:  -4.255319149    AVG:  -4.255319149
EPOCH: 118 MAX:  -4.255319149    AVG:  -4.255319149
EPOCH: 119 MAX:  -4.255319149    AVG:  -4.255319149
EPOCH: 120 MAX:  -4.255319149    AVG:  -4.255319149
EPOCH: 121 MAX:  -4.255319149    AVG:  -4.255319149
EPOCH: 122 MAX:  -4.255319149    AVG:  -4.255319149
EPOCH: 123 MAX:  -4.255319149    AVG:  -4.255319149
EPOCH: 124 MAX:  -4.255319149    AVG:  -4.255319149
EPOCH: 125 MAX:  -4.255319149    AVG:  -4.255319149
EPOCH: 126 MAX:  -4.255319149    AVG:  -4.255319149
EPOCH: 127 MAX:  -4.255319149    AVG:  -4.255319149
EPOCH: 128 MAX:  -4.255319149    AVG:  -4.255319149
EPOCH: 129 MAX:  -4.255319149    AVG:  -4.255319149
EPOCH: 130 MAX:  -4.255319149    AVG:  -4.255319149
EPOCH: 131 MAX:  -4.255319149    AVG:  -4.255319149
EPOCH: 132 MAX:  -4.255319149    AVG:  -4.255319149
EPOCH: 133 MAX:  -4.255319149    AVG:  -4.255319149
EPOCH: 134 MAX:  -4.255319149    AVG:  -4.255319149
EPOCH: 135 MAX:  -4.255319149    AVG:  -4.255319149
EPOCH: 136 MAX:  -4.255319149    AVG:  -4.255319149
EPOCH: 137 MAX:  -4.255319149    AVG:  -4.255319149
EPOCH: 138 MAX:  -4.255319149    AVG:  -4.255319149
EPOCH: 139 MAX:  -4.255319149    AVG:  -4.255319149
EPOCH: 140 MAX:  -4.255319149    AVG:  -4.255319149
EPOCH: 141 MAX:  -4.255319149    AVG:  -4.255319149
EPOCH: 142 MAX:  -4.255319149    AVG:  -4.255319149
EPOCH: 143 MAX:  -4.255319149    AVG:  -4.255319149
EPOCH: 144 MAX:  -4.255319149    AVG:  -4.255319149
EPOCH: 145 MAX:  -4.255319149    AVG:  -4.255319149
EPOCH: 146 MAX:  -4.255319149    AVG:  -4.255319149
EPOCH: 147 MAX:  -4.255319149    AVG:  -4.255319149
EPOCH: 148 MAX:  -4.255319149    AVG:  -4.255319149
EPOCH: 149 MAX:  -4.255319149    AVG:  -4.255319149
EPOCH: 150 MAX:  -4.255319149    AVG:  -4.255319149
EPOCH: 151 MAX:  -4.255319149    AVG:  -4.255319149
EPOCH: 152 MAX:  -4.255319149    AVG:  -4.255319149
EPOCH: 153 MAX:  -4.255319149    AVG:  -4.255319149
EPOCH: 154 MAX:  -4.255319149    AVG:  -4.255319149
EPOCH: 155 MAX:  -4.255319149    AVG:  -4.255319149
EPOCH: 156 MAX:  -4.255319149    AVG:  -4.255319149
EPOCH: 157 MAX:  -4.255319149    AVG:  -4.255319149
EPOCH: 158 MAX:  -4.255319149    AVG:  -4.255319149
EPOCH: 159 MAX:  -4.255319149    AVG:  -4.255319149
EPOCH: 160 MAX:  -4.255319149    AVG:  -4.255319149
EPOCH: 161 MAX:  -4.255319149    AVG:  -4.255319149
EPOCH: 162 MAX:  -4.255319149    AVG:  -4.255319149
HELPER:  ....
EPOCH: 163 MAX:  -4.255319149    AVG:  -4.255319149
EPOCH: 164 MAX:  -4.255319149    AVG:  -4.255319149
EPOCH: 165 MAX:  -4.255319149    AVG:  -4.255319149
EPOCH: 166 MAX:  -4.255319149    AVG:  -4.255319149
EPOCH: 167 MAX:  -4.255319149    AVG:  -4.255319149
EPOCH: 168 MAX:  -4.255319149    AVG:  -4.255319149
EPOCH: 169 MAX:  -4.255319149    AVG:  -4.255319149
EPOCH: 170 MAX:  -4.255319149    AVG:  -4.255319149
EPOCH: 171 MAX:  -4.255319149    AVG:  -4.255319149
EPOCH: 172 MAX:  -4.255319149    AVG:  -4.255319149
EPOCH: 173 MAX:  -4.255319149    AVG:  -4.255319149
EPOCH: 174 MAX:  -4.255319149    AVG:  -4.255319149
EPOCH: 175 MAX:  -4.255319149    AVG:  -4.255319149
EPOCH: 176 MAX:  -4.255319149    AVG:  -4.255319149
EPOCH: 177 MAX:  -4.255319149    AVG:  -4.255319149
EPOCH: 178 MAX:  -4.255319149    AVG:  -4.255319149
EPOCH: 179 MAX:  -4.255319149    AVG:  -4.255319149
EPOCH: 180 MAX:  -4.255319149    AVG:  -4.255319149
EPOCH: 181 MAX:  -4.255319149    AVG:  -4.255319149
EPOCH: 182 MAX:  -4.255319149    AVG:  -4.255319149
EPOCH: 183 MAX:  -4.255319149    AVG:  -4.255319149
EPOCH: 184 MAX:  -4.255319149    AVG:  -4.255319149
EPOCH: 185 MAX:  -4.255319149    AVG:  -4.255319149
EPOCH: 186 MAX:  -4.255319149    AVG:  -4.255319149
EPOCH: 187 MAX:  -4.255319149    AVG:  -4.255319149
EPOCH: 188 MAX:  -4.255319149    AVG:  -4.255319149
EPOCH: 189 MAX:  -4.255319149    AVG:  -4.255319149
EPOCH: 190 MAX:  -4.255319149    AVG:  -4.255319149
EPOCH: 191 MAX:  -4.255319149    AVG:  -4.255319149
EPOCH: 192 MAX:  -4.255319149    AVG:  -4.255319149
EPOCH: 193 MAX:  -4.255319149    AVG:  -4.255319149
EPOCH: 194 MAX:  -4.255319149    AVG:  -4.255319149
EPOCH: 195 MAX:  -4.255319149    AVG:  -4.255319149
EPOCH: 196 MAX:  -4.255319149    AVG:  -4.255319149
EPOCH: 197 MAX:  -4.255319149    AVG:  -4.255319149
EPOCH: 198 MAX:  -4.255319149    AVG:  -4.255319149
EPOCH: 199 MAX:  -4.255319149    AVG:  -4.255319149
EPOCH: 200 MAX:  -4.255319149    AVG:  -4.255319149
EPOCH: 201 MAX:  -4.255319149    AVG:  -4.255319149
EPOCH: 202 MAX:  -4.255319149    AVG:  -4.255319149
EPOCH: 203 MAX:  -4.255319149    AVG:  -4.255319149
EPOCH: 204 MAX:  -4.255319149    AVG:  -4.255319149
EPOCH: 205 MAX:  -4.255319149    AVG:  -4.255319149
EPOCH: 206 MAX:  -4.255319149    AVG:  -4.255319149
EPOCH: 207 MAX:  -4.255319149    AVG:  -4.255319149
EPOCH: 208 MAX:  -4.255319149    AVG:  -4.255319149
EPOCH: 209 MAX:  -4.255319149    AVG:  -4.255319149
EPOCH: 210 MAX:  -4.255319149    AVG:  -4.255319149
EPOCH: 211 MAX:  -4.255319149    AVG:  -4.255319149
EPOCH: 212 MAX:  -4.255319149    AVG:  -4.255319149
EPOCH: 213 MAX:  -4.255319149    AVG:  -4.255319149
EPOCH: 214 MAX:  -4.255319149    AVG:  -4.255319149
EPOCH: 215 MAX:  -4.255319149    AVG:  -4.255319149
EPOCH: 216 MAX:  -4.255319149    AVG:  -4.255319149
EPOCH: 217 MAX:  -4.255319149    AVG:  -4.255319149
EPOCH: 218 MAX:  -4.255319149    AVG:  -4.255319149
EPOCH: 219 MAX:  -4.255319149    AVG:  -4.255319149
EPOCH: 220 MAX:  -4.255319149    AVG:  -4.255319149
EPOCH: 221 MAX:  -4.255319149    AVG:  -4.255319149
EPOCH: 222 MAX:  -4.255319149    AVG:  -4.255319149
EPOCH: 223 MAX:  -4.255319149    AVG:  -4.255319149
EPOCH: 224 MAX:  -4.255319149    AVG:  -4.255319149
EPOCH: 225 MAX:  -4.255319149    AVG:  -4.255319149
EPOCH: 226 MAX:  -4.255319149    AVG:  -4.255319149
EPOCH: 227 MAX:  -4.255319149    AVG:  -4.255319149
EPOCH: 228 MAX:  -4.255319149    AVG:  -4.255319149
EPOCH: 229 MAX:  -4.255319149    AVG:  -4.255319149
EPOCH: 230 MAX:  -4.255319149    AVG:  -4.255319149
EPOCH: 231 MAX:  -4.255319149    AVG:  -4.255319149
EPOCH: 232 MAX:  -4.255319149    AVG:  -4.255319149
HELPER:  ....
---------------------------
CH: 0 1986826184.000000000
CH: 1 1986826184.000000000
CH: 2 1435136329.000000000
CH: 3 1947442046.000000000
CH: 4 1947442046.000000000
CH: 5 1986826184.000000000
CH: 6 1986826184.000000000
CH: 7 1435136329.000000000
CH: 8 1947442046.000000000
CH: 9 1947442046.000000000
CH: 10 1986826184.000000000
CH: 11 1828079764.000000000
CH: 12 1986826184.000000000
CH: 13 1828079764.000000000
CH: 14 1947442046.000000000
CH: 15 1947442046.000000000
CH: 16 1986826184.000000000
CH: 17 1986826184.000000000
CH: 18 1435136329.000000000
CH: 19 1947442046.000000000
CH: 20 1947442046.000000000
CH: 21 1986826184.000000000
CH: 22 1828079764.000000000
CH: 23 2082147824.000000000
CH: 24 2082147824.000000000
CH: 25 2082147824.000000000
CH: 26 2082147824.000000000
CH: 27 2082147824.000000000
CH: 28 2082147824.000000000
CH: 29 2082147824.000000000
CH: 30 2082147824.000000000
CH: 31 2082147824.000000000
CH: 32 2082147824.000000000
CH: 33 2082147824.000000000
CH: 34 2082147824.000000000
CH: 35 1986826184.000000000
CH: 36 1828079764.000000000
CH: 37 1947442046.000000000
CH: 38 1947442046.000000000
CH: 39 1986826184.000000000
CH: 40 1986826184.000000000
CH: 41 1435136329.000000000
CH: 42 1947442046.000000000
CH: 43 1947442046.000000000
CH: 44 1986826184.000000000
CH: 45 1828079764.000000000
CH: 46 2082147824.000000000





END ------------------------
ERROR: 0.000000000
NUM OF COLORS USED = 5
